188 140 129 156 169 171
157 186 113 208 224 235
164 166 188 114 152 202
155 165 138 182 122 218
183 120 104 188 149 258
115 195 198 113 162 213
137 115 187 142 210 156
120 199 185 155 120 240
128 152 125 137 210 141
140 192 106 211 183 210
